letting n =  10
letting blocks =  [[1, 2], [1, 3], [1, 4], [1, 6], [1, 10], [2, 5], [2, 6], [3, 1], [3, 2], [3, 3], [3, 5], [3, 8], [4, 1], [4, 3], [4, 4], [4, 5], [4, 6], [4, 9], [5, 6], [5, 7], [5, 10], [6, 2], [6, 3], [6, 10], [7, 3], [7, 10], [8, 7], [8, 9], [8, 10], [9, 2], [9, 4], [9, 10], [10, 3], [10, 5]]
